c --- [ banner ] -------------------------------------------------------------
c 
c CaDiCaL Radically Simplified CDCL SAT Solver
c Copyright (c) 2016-2021 A. Biere, M. Fleury, N. Froleyks
c 
c Version 1.5.2 a5f15211db36c3956764e18194dd5bd63bf3b5e6
c g++ (GCC) 9.3.0 -Wall -Wextra -O3 -DNDEBUG
c Fri Oct 21 01:27:37 EDT 2022 Linux gra-login3 3.10.0-1160.66.1.el7.x86_64 x86_64
c 
c --- [ limit ] --------------------------------------------------------------
c 
c setting conflict limit to 200000 conflicts (due to '200000')
c 
c --- [ parsing input ] ------------------------------------------------------
c 
c reading DIMACS file from '33.cubes2747.adj'
c opening file to read '33.cubes2747.adj'
c found 'p cnf 6160 1595478' header
c parsed 1595478 clauses in 20.81 seconds process time
c closing file '33.cubes2747.adj'
c after reading 1457566796 bytes 1390.0 MB
c 
c --- [ options ] ------------------------------------------------------------
c 
c all options are set to their default value
c 
c --- [ solving ] ------------------------------------------------------------
c 
c time measured in process time since initialization
c 
c  seconds    reductions  redundant   irredundant
c          MB     restarts       trail       variables
c            level   conflicts       glue         remaining
c 
c * 20.81 1378  0 0   0    0    0  0% 0 1595422 2377 39%
c { 22.03 1434  0 0   0    0    0  0% 0 1595422 2377 39%
c i 23.73 1481 686 0   4   48   43 33% 15 1595422 2376 39%
c i 24.02 1485 661 0   4   50   44 33% 14 1595422 2375 39%
c i 24.58 1495 527 0   7   64   57 32% 20 1595422 2355 38%
c i 25.34 1506 403 0  13   85   76 31% 24 1595422 2353 38%
c i 25.72 1510 350 0  16  104   89 31% 24 1595422 2345 38%
c i 27.95 1519 224 0  35  210  165 27% 35 1595422 2339 38%
c i 28.00 1519 224 0  35  211  165 27% 35 1595422 2338 38%
c i 28.43 1521 219 0  38  223  175 27% 37 1595422 2337 38%
c i 28.48 1521 219 0  38  226  177 27% 38 1595422 2336 38%
c i 28.97 1522 209 0  43  244  194 27% 38 1595422 2335 38%
c i 29.05 1524 208 0  44  246  195 27% 38 1595422 2334 38%
c i 29.53 1525 183 0  45  284  216 27% 34 1595422 2333 38%
c i 29.58 1525 181 0  45  291  220 27% 35 1595422 2332 38%
c i 29.66 1526 179 0  45  305  224 27% 34 1595422 2329 38%
c - 33.50 1491 179 1  45  305  224 27% 34 350334 2329 38%
c i 33.70 1492 179 1  45  306  224 27% 34 350334 2328 38%
c i 33.71 1492 178 1  45  308  225 27% 34 350334 2327 38%
c i 33.72 1492 176 1  45  311  226 27% 33 350334 2326 38%
c 
c  seconds     reductions  redundant   irredundant
c          MB      restarts       trail       variables
c             level   conflicts       glue         remaining
c 
c i 33.78 1492 173 1  45  317  231 27% 33 350334 2325 38%
c i 33.85 1492 168 1  45  328  240 27% 33 350334 2324 38%
c i 34.14 1492 159 1  46  360  271 27% 34 350334 2323 38%
c i 34.24 1451 157 1  47  369  278 27% 34 350334 2322 38%
c i 34.25 1451 157 1  47  372  280 27% 34 350334 2321 38%
c i 34.27 1451 157 1  47  374  281 27% 34 350334 2320 38%
c i 34.36 1451 154 1  49  388  293 27% 34 350334 2319 38%
c i 34.82 1451 117 1  52  578  444 28% 33 350334 2318 38%
c i 34.90 1451 113 1  52  608  470 28% 33 350334 2317 38%
c i 34.96 1451 112 1  52  614  475 28% 32 350334 2316 38%
c i 34.99 1451 112 1  52  618  477 28% 32 350334 2315 38%
c i 35.13 1451 109 1  52  639  496 28% 32 350334 2314 38%
c i 35.17 1451 109 1  52  647  501 28% 32 350334 2313 38%
c i 35.24 1451 107 1  53  673  520 28% 33 350334 2312 38%
c i 35.31 1451 107 1  54  678  524 28% 33 350334 2311 38%
c i 35.41 1451 106 1  58  691  535 28% 33 350334 2310 38%
c i 36.33 1452 104 1  68  761  602 28% 33 350334 2309 37%
c i 36.46 1452 105 1  70  772  611 28% 33 350334 2307 37%
c i 36.55 1452 105 1  72  779  617 28% 33 350334 2306 37%
c i 36.55 1452 105 1  72  780  617 28% 33 350334 2305 37%
c 
c  seconds     reductions  redundant   irredundant
c          MB      restarts       trail       variables
c             level   conflicts       glue         remaining
c 
c i 36.63 1452 105 1  74  787  622 28% 33 350334 2304 37%
c i 37.39 1452 104 1  87  884  698 28% 34 350334 2303 37%
c i 37.58 1452 103 1  89  897  709 28% 34 350334 2302 37%
c i 37.71 1452 102 1  91  915  725 28% 34 350334 2301 37%
c } 38.25 1452 96 1  91 1000  794 28% 32 350334 2301 37%
c [ 38.25 1452  0 1  91 1000  794  0% 0 350334 2301 37%
c O 38.29 1452 14 1  91 1002  796 22% 6 350334 2301 37%
c i 38.55 1452 18 1  91 1031  824 31% 14 350334 2300 37%
c i 38.65 1452 23 1  91 1063  854 32% 19 350334 2299 37%
c i 38.70 1452 25 1  91 1074  862 32% 21 350334 2298 37%
c i 38.74 1452 28 1  91 1097  881 32% 22 350334 2297 37%
c i 38.82 1452 29 1  91 1151  927 32% 24 350334 2296 37%
c - 39.59 1601 29 2  91 1231  896 33% 25 350235 2296 37%
c i 39.75 1601 28 2  91 1276  934 33% 24 350235 2295 37%
c i 39.84 1601 28 2  91 1439 1046 32% 25 350235 2294 37%
c i 39.86 1601 27 2  91 1474 1074 32% 24 350235 2293 37%
c i 40.27 1601 27 2  91 1959 1435 32% 24 350235 2292 37%
c - 41.02 1600 26 3  92 2620 1448 32% 24 350223 2292 37%
c ] 41.53 1600 26 3  92 2983 1734 54% 23 350223 2292 37%
c 1 41.53 1600 26 3  92 2983 1734 54% 23 350223 2292 37%
c 
c --- [ writing output ] -----------------------------------------------------
c 
c writing simplified CNF to DIMACS file 'simp/33.cubes2747.adj.simp1'
c 
c  seconds    reductions  redundant   irredundant
c          MB     restarts       trail       variables
c            level   conflicts       glue         remaining
c 
c * 41.53 1600 26 3  92 2983 1734 54% 23 350223 2292 37%
c opening file to write 'simp/33.cubes2747.adj.simp1'
c writing 'p cnf 6160 350223' header
c closing file 'simp/33.cubes2747.adj.simp1'
c after writing 170559406 bytes 162.7 MB
c wrote 350223 clauses in 1.24 seconds process time
c 
c --- [ writing extension ] --------------------------------------------------
c 
c writing extension stack to 'simp/33.cubes2747.adj.ext1'
c opening file to write 'simp/33.cubes2747.adj.ext1'
c closing file 'simp/33.cubes2747.adj.ext1'
c after writing 10700 bytes 0.0 MB
c wrote 724 witnesses in 0.00 seconds process time
c 
c --- [ result ] -------------------------------------------------------------
c 
s SATISFIABLE
c 
c --- [ run-time profiling ] -------------------------------------------------
c 
c process time taken by individual solving procedures
c (percentage relative to process time for solving)
c 
c        20.81  100.40% parse
c        20.72  100.00% search
c        16.23   78.30% unstable
c         3.28   15.83% stable
c         1.22    5.87% lucky
c         0.00    0.00% simplify
c   =================================
c        20.73   48.45% solve
c 
c last line shows process time for solving
c (percentage relative to total process time)
c 
c --- [ statistics ] ---------------------------------------------------------
c 
c chronological:               624        20.92 %  of conflicts
c conflicts:                  2983       143.93    per second
c decisions:                 16981       819.35    per second
c fixed:                       724        11.75 %  of all variables
c learned:                    2910        97.55 %  per conflict
c learned_lits:             659326       100.00 %  learned literals
c minimized:                     0         0.00 %  learned literals
c shrunken:                 347900        52.77 %  learned literals
c minishrunken:              88947        13.49 %  learned literals
c propagations:             447266         0.02 M  per second
c reduced:                     614        20.58 %  per conflict
c rephased:                      1      2983.00    interval
c restarts:                     92        32.42    interval
c stabilizing:                   1        66.48 %  of conflicts
c subsumed:                    509         0.02 %  of all clauses
c 
c seconds are measured in process time for solving
c 
c --- [ resources ] ----------------------------------------------------------
c 
c total process time since initialization:        42.78    seconds
c total real time since initialization:           43.15    seconds
c maximum resident set size of process:         1748.81    MB
c 
c --- [ shutting down ] ------------------------------------------------------
c 
c exit 10
WARNING! DIMACS header mismatch: wrong number of variables.
============================[ Problem Statistics ]=============================
|                                                                             |
|  Number of variables:          6120                                         |
|  Number of clauses:          350223                                         |
|  Parse time:                   2.28 s                                       |
|  Simplification time:          0.07 s                                       |
|                                                                             |
============================[ Search Statistics ]====================================================
| Conflicts |          ORIGINAL         |          LEARNT          | Num Sols |      SUBGRAPHS      |
|           |    Vars  Clauses Literals |    Limit  Clauses Lit/Cl |          | Canonical Noncanon. |
=====================================================================================================
|       175 |    6027   350298 37019197 |     2000      173     40 |        0 |        39        75 |
|       510 |    6026   350483 37023059 |     2000      507     35 |        0 |       101       260 |
|       744 |    6021   350492 37023218 |     2000      736     63 |        0 |       106       269 |
|      1478 |    6018   350889 37030476 |     2000     1467     55 |        0 |       238       666 |
|      3575 |    6016   352480 37057865 |     3594     2569     15 |        0 |       473      2257 |
|      5613 |    6013   353759 37076588 |     4996     2808     13 |        0 |       696      3536 |
|      7013 |    6006   354020 37081505 |     4996     4201     36 |        0 |       847      3797 |
|      9038 |    6005   354337 37087131 |     6294     3732     40 |        0 |       908      4114 |
|     12158 |    6002   354895 37098066 |     7550     3708     27 |        0 |      1049      4672 |
|     16319 |    6001   355212 37103293 |     8782     4100     21 |        0 |      1108      4989 |
|     22301 |    6000   355428 37108156 |     9993     5693     37 |        0 |      1172      5205 |
|     32584 |    6000   357062 37137488 |    11198    10982     69 |        0 |      1525      6839 |
|     50573 |    6000   362077 37221482 |    14808    10381     29 |        0 |      2231     11854 |
|     79080 |    6000   371123 37361527 |    18408    14888     50 |        0 |      3236     20900 |
|    113426 |    5999   376277 37440978 |    22018    19844     57 |        0 |      3994     26054 |
|    160448 |    5999   379510 37496565 |    26818    19266     48 |        0 |      4631     29287 |
|    231813 |    5998   385191 37587075 |    32816    17629     33 |        0 |      5536     34968 |
|    352122 |    5998   406881 37890301 |    40013    30530     34 |        0 |      6955     56751 |
|    504959 |    5998   411929 37954724 |    48418    30777     43 |        0 |      7502     61799 |
|    732057 |    5998   417344 38035928 |    58025    47482     67 |        0 |      8486     67214 |
|   1071865 |    5998   424627 38149142 |    71228    35293     32 |        0 |     10526     74497 |
|   1590955 |    5972   426963 38146322 |    84773    42728     45 |        0 |     12810     94799 |
=====================================================================================================
Number of solutions   : 0
Canonical subgraphs   : 14793          (13 /sec)
          order  3    : 1              (142857 /sec)
          order  4    : 1              (500000 /sec)
          order  5    : 1              (200000 /sec)
          order  6    : 1              (55556 /sec)
          order  7    : 1              (8850 /sec)
          order  8    : 2              (1357 /sec)
          order  9    : 7              (351 /sec)
          order 10    : 32             (108 /sec)
          order 11    : 110            (30 /sec)
          order 12    : 626            (14 /sec)
          order 13    : 3827           (14 /sec)
          order 14    : 2312           (23 /sec)
          order 15    : 2711           (14 /sec)
          order 16    : 3728           (10 /sec)
          order 17    : 1067           (13 /sec)
          order 18    : 205            (10 /sec)
          order 19    : 84             (9 /sec)
          order 20    : 39             (11 /sec)
          order 21    : 38             (11 /sec)
          order 22    : 0              (-nan /sec)
Noncanonical subgraphs: 107871         (651 /sec)
          order  3    : 0              (-nan /sec)
          order  4    : 0              (-nan /sec)
          order  5    : 0              (-nan /sec)
          order  6    : 0              (-nan /sec)
          order  7    : 0              (-nan /sec)
          order  8    : 0              (-nan /sec)
          order  9    : 0              (-nan /sec)
          order 10    : 0              (-nan /sec)
          order 11    : 0              (-nan /sec)
          order 12    : 0              (-nan /sec)
          order 13    : 8002           (6431 /sec)
          order 14    : 70970          (726 /sec)
          order 15    : 15031          (1014 /sec)
          order 16    : 10974          (670 /sec)
          order 17    : 2666           (95 /sec)
          order 18    : 190            (49 /sec)
          order 19    : 0              (-nan /sec)
          order 20    : 0              (-nan /sec)
          order 21    : 0              (-nan /sec)
Canonicity checking   : 1101.4 s
Noncanonicity checking: 165.826 s
Total canonicity time : 1267.22 s
database reductions   : 79
restarts              : 3962
conflicts             : 2012907        (759 /sec)
decisions             : 2619422        (0.00 % random) (988 /sec)
propagations          : 224664792      (84727 /sec)
conflict literals     : 227673629      (54.11 % deleted)
actual reward         : 0.117139
Memory used           : 605.00 MB
CPU time              : 2651.62 s

UNSATISFIABLE
